NAME /Users/henri/Research/solvers/instances/idol-instances/robust/collection/cbp_Subramanyam_et_al_2020/CapBud_N30_18/models/uncertain_technology_matrix/
ROWS
 N  OBJ
 L  capacity
 L  c_6775
 L  c_6776
 L  c_6777
 L  c_6778
 L  c_6779
 L  c_6780
 L  c_6781
 L  c_6782
 L  c_6783
 L  c_6784
 L  c_6785
 L  c_6786
 L  c_6787
 L  c_6788
 L  c_6789
 L  c_6790
 L  c_6791
 L  c_6792
 L  c_6793
 L  c_6794
 L  c_6795
 L  c_6796
 L  c_6797
 L  c_6798
 L  c_6799
 L  c_6800
 L  c_6801
 L  c_6802
 L  c_6803
 L  c_6804
COLUMNS
    MARKER    'MARKER'                 'INTORG'
    x_0        OBJ        -1.94792
    x_0        c_6775     1
    x_0        capacity   0.389585
    x_1        OBJ        -4.49655
    x_1        c_6776     1
    x_1        capacity   0.89931
    x_2        OBJ        -9.33603
    x_2        c_6777     1
    x_2        capacity   1.86721
    x_3        OBJ        -2.403
    x_3        c_6778     1
    x_3        capacity   0.4806
    x_4        OBJ        -0.236379
    x_4        c_6779     1
    x_4        capacity   0.0472757
    x_5        OBJ        -5.99658
    x_5        c_6780     1
    x_5        capacity   1.19932
    x_6        OBJ        -5.58137
    x_6        c_6781     1
    x_6        capacity   1.11627
    x_7        OBJ        -5.27268
    x_7        c_6782     1
    x_7        capacity   1.05454
    x_8        OBJ        -6.5271
    x_8        c_6783     1
    x_8        capacity   1.30542
    x_9        OBJ        -3.6735
    x_9        c_6784     1
    x_9        capacity   0.7347
    x_10       OBJ        -3.64264
    x_10       c_6785     1
    x_10       capacity   0.728528
    x_11       OBJ        -9.69155
    x_11       c_6786     1
    x_11       capacity   1.93831
    x_12       OBJ        -0.626035
    x_12       c_6787     1
    x_12       capacity   0.125207
    x_13       OBJ        -7.98888
    x_13       c_6788     1
    x_13       capacity   1.59778
    x_14       OBJ        -7.01861
    x_14       c_6789     1
    x_14       capacity   1.40372
    x_15       OBJ        -0.503305
    x_15       c_6790     1
    x_15       capacity   0.100661
    x_16       OBJ        -6.18264
    x_16       c_6791     1
    x_16       capacity   1.23653
    x_17       OBJ        -7.22805
    x_17       c_6792     1
    x_17       capacity   1.44561
    x_18       OBJ        -1.37793
    x_18       c_6793     1
    x_18       capacity   0.275587
    x_19       OBJ        -5.72185
    x_19       c_6794     1
    x_19       capacity   1.14437
    x_20       OBJ        -7.63678
    x_20       c_6795     1
    x_20       capacity   1.52736
    x_21       OBJ        -3.7143
    x_21       c_6796     1
    x_21       capacity   0.74286
    x_22       OBJ        -9.86514
    x_22       c_6797     1
    x_22       capacity   1.97303
    x_23       OBJ        -0.318256
    x_23       c_6798     1
    x_23       capacity   0.0636512
    x_24       OBJ        -3.46931
    x_24       c_6799     1
    x_24       capacity   0.693862
    x_25       OBJ        -9.9968
    x_25       c_6800     1
    x_25       capacity   1.99936
    x_26       OBJ        -5.83969
    x_26       c_6801     1
    x_26       capacity   1.16794
    x_27       OBJ        -4.58341
    x_27       c_6802     1
    x_27       capacity   0.916683
    x_28       OBJ        -0.861324
    x_28       c_6803     1
    x_28       capacity   0.172265
    x_29       OBJ        -3.34552
    x_29       c_6804     1
    x_29       capacity   0.669104
    y_0        OBJ        -1.55834
    y_0        c_6775     1
    y_0        capacity   0.389585
    y_1        OBJ        -3.59724
    y_1        c_6776     1
    y_1        capacity   0.89931
    y_2        OBJ        -7.46882
    y_2        c_6777     1
    y_2        capacity   1.86721
    y_3        OBJ        -1.9224
    y_3        c_6778     1
    y_3        capacity   0.4806
    y_4        OBJ        -0.189103
    y_4        c_6779     1
    y_4        capacity   0.0472757
    y_5        OBJ        -4.79726
    y_5        c_6780     1
    y_5        capacity   1.19932
    y_6        OBJ        -4.46509
    y_6        c_6781     1
    y_6        capacity   1.11627
    y_7        OBJ        -4.21815
    y_7        c_6782     1
    y_7        capacity   1.05454
    y_8        OBJ        -5.22168
    y_8        c_6783     1
    y_8        capacity   1.30542
    y_9        OBJ        -2.9388
    y_9        c_6784     1
    y_9        capacity   0.7347
    y_10       OBJ        -2.91411
    y_10       c_6785     1
    y_10       capacity   0.728528
    y_11       OBJ        -7.75324
    y_11       c_6786     1
    y_11       capacity   1.93831
    y_12       OBJ        -0.500828
    y_12       c_6787     1
    y_12       capacity   0.125207
    y_13       OBJ        -6.39111
    y_13       c_6788     1
    y_13       capacity   1.59778
    y_14       OBJ        -5.61489
    y_14       c_6789     1
    y_14       capacity   1.40372
    y_15       OBJ        -0.402644
    y_15       c_6790     1
    y_15       capacity   0.100661
    y_16       OBJ        -4.94611
    y_16       c_6791     1
    y_16       capacity   1.23653
    y_17       OBJ        -5.78244
    y_17       c_6792     1
    y_17       capacity   1.44561
    y_18       OBJ        -1.10235
    y_18       c_6793     1
    y_18       capacity   0.275587
    y_19       OBJ        -4.57748
    y_19       c_6794     1
    y_19       capacity   1.14437
    y_20       OBJ        -6.10942
    y_20       c_6795     1
    y_20       capacity   1.52736
    y_21       OBJ        -2.97144
    y_21       c_6796     1
    y_21       capacity   0.74286
    y_22       OBJ        -7.89211
    y_22       c_6797     1
    y_22       capacity   1.97303
    y_23       OBJ        -0.254605
    y_23       c_6798     1
    y_23       capacity   0.0636512
    y_24       OBJ        -2.77545
    y_24       c_6799     1
    y_24       capacity   0.693862
    y_25       OBJ        -7.99744
    y_25       c_6800     1
    y_25       capacity   1.99936
    y_26       OBJ        -4.67175
    y_26       c_6801     1
    y_26       capacity   1.16794
    y_27       OBJ        -3.66673
    y_27       c_6802     1
    y_27       capacity   0.916683
    y_28       OBJ        -0.689059
    y_28       c_6803     1
    y_28       capacity   0.172265
    y_29       OBJ        -2.67642
    y_29       c_6804     1
    y_29       capacity   0.669104
    MARKER    'MARKER'                 'INTEND'
RHS
    RHS       capacity   72.5416
    RHS       c_6775     1
    RHS       c_6776     1
    RHS       c_6777     1
    RHS       c_6778     1
    RHS       c_6779     1
    RHS       c_6780     1
    RHS       c_6781     1
    RHS       c_6782     1
    RHS       c_6783     1
    RHS       c_6784     1
    RHS       c_6785     1
    RHS       c_6786     1
    RHS       c_6787     1
    RHS       c_6788     1
    RHS       c_6789     1
    RHS       c_6790     1
    RHS       c_6791     1
    RHS       c_6792     1
    RHS       c_6793     1
    RHS       c_6794     1
    RHS       c_6795     1
    RHS       c_6796     1
    RHS       c_6797     1
    RHS       c_6798     1
    RHS       c_6799     1
    RHS       c_6800     1
    RHS       c_6801     1
    RHS       c_6802     1
    RHS       c_6803     1
    RHS       c_6804     1
BOUNDS
 LI BND       x_0        0
 UI BND       x_0        1
 LI BND       x_1        0
 UI BND       x_1        1
 LI BND       x_2        0
 UI BND       x_2        1
 LI BND       x_3        0
 UI BND       x_3        1
 LI BND       x_4        0
 UI BND       x_4        1
 LI BND       x_5        0
 UI BND       x_5        1
 LI BND       x_6        0
 UI BND       x_6        1
 LI BND       x_7        0
 UI BND       x_7        1
 LI BND       x_8        0
 UI BND       x_8        1
 LI BND       x_9        0
 UI BND       x_9        1
 LI BND       x_10       0
 UI BND       x_10       1
 LI BND       x_11       0
 UI BND       x_11       1
 LI BND       x_12       0
 UI BND       x_12       1
 LI BND       x_13       0
 UI BND       x_13       1
 LI BND       x_14       0
 UI BND       x_14       1
 LI BND       x_15       0
 UI BND       x_15       1
 LI BND       x_16       0
 UI BND       x_16       1
 LI BND       x_17       0
 UI BND       x_17       1
 LI BND       x_18       0
 UI BND       x_18       1
 LI BND       x_19       0
 UI BND       x_19       1
 LI BND       x_20       0
 UI BND       x_20       1
 LI BND       x_21       0
 UI BND       x_21       1
 LI BND       x_22       0
 UI BND       x_22       1
 LI BND       x_23       0
 UI BND       x_23       1
 LI BND       x_24       0
 UI BND       x_24       1
 LI BND       x_25       0
 UI BND       x_25       1
 LI BND       x_26       0
 UI BND       x_26       1
 LI BND       x_27       0
 UI BND       x_27       1
 LI BND       x_28       0
 UI BND       x_28       1
 LI BND       x_29       0
 UI BND       x_29       1
 LI BND       y_0        0
 UI BND       y_0        1
 LI BND       y_1        0
 UI BND       y_1        1
 LI BND       y_2        0
 UI BND       y_2        1
 LI BND       y_3        0
 UI BND       y_3        1
 LI BND       y_4        0
 UI BND       y_4        1
 LI BND       y_5        0
 UI BND       y_5        1
 LI BND       y_6        0
 UI BND       y_6        1
 LI BND       y_7        0
 UI BND       y_7        1
 LI BND       y_8        0
 UI BND       y_8        1
 LI BND       y_9        0
 UI BND       y_9        1
 LI BND       y_10       0
 UI BND       y_10       1
 LI BND       y_11       0
 UI BND       y_11       1
 LI BND       y_12       0
 UI BND       y_12       1
 LI BND       y_13       0
 UI BND       y_13       1
 LI BND       y_14       0
 UI BND       y_14       1
 LI BND       y_15       0
 UI BND       y_15       1
 LI BND       y_16       0
 UI BND       y_16       1
 LI BND       y_17       0
 UI BND       y_17       1
 LI BND       y_18       0
 UI BND       y_18       1
 LI BND       y_19       0
 UI BND       y_19       1
 LI BND       y_20       0
 UI BND       y_20       1
 LI BND       y_21       0
 UI BND       y_21       1
 LI BND       y_22       0
 UI BND       y_22       1
 LI BND       y_23       0
 UI BND       y_23       1
 LI BND       y_24       0
 UI BND       y_24       1
 LI BND       y_25       0
 UI BND       y_25       1
 LI BND       y_26       0
 UI BND       y_26       1
 LI BND       y_27       0
 UI BND       y_27       1
 LI BND       y_28       0
 UI BND       y_28       1
 LI BND       y_29       0
 UI BND       y_29       1
ENDATA
